benchmarks_vrp/CMT4/no_cluster/CMT4_4.vrp
NAME: CMT4_4
TYPE: CVRP
COMMENT: 1028.42 - Cluster Nr.4
DIMENSION: 13
CAPACITY: 200
EDGE_WEIGHT_TYPE: EUC_2D
NODE_COORD_TYPE: TWOD_COORDS
NODE_COORD_SECTION: 
3 13 52
6 7 38
8 35 35
11 20 50
12 20 40
13 8 52
4 2 48
2 10 43
1 21 47
7 14 37
10 12 42
5 6 38
9 15 47
DEPOT_SECTION: 
8
-1
DEMAND_SECTION: 
13 10
10 21
6 28
5 16
11 5
8 0
1 15
2 9
9 16
3 36
12 12
4 1
7 11
EOF
