benchmarks_vrp/CMT4/no_cluster/CMT4_4.tour
NAME: CMT4_4 solution
TYPE: TOUR
TOUR_SECTION:
8 1 11 9 3 13 4 5 6 2 10 7 12 -1
-1
EOF